# Solution for model iteration_27
# Objective value = 1.2906065043588507e+02
0 0
1 0.001
3 0.001
4 30.001
5 3.0002000000000002e+01
6 40.002
7 6.6002000000000010e+01
9 40.003
10 50.003
11 50.004
12 60.004
13 1.3200300000000001e+02
15 1.9800400000000002e+02
17 2.4906365043588505e+02
c(0,17)_ru 1.2906065043588507e+02
lambda[0] 5.8496251210791761e-01
lambda[1] 0
lambda[2] 0
lambda[3] 0
lambda[4] 0
lambda[5] 0
lambda[6] 0
lambda[7] 0
lambda[8] 0
lambda[9] 0
lambda[10] 0
lambda[11] 0
lambda[12] 0
lambda[13] 0
lambda[14] 0
lambda[15] 0
lambda[16] 0
lambda[17] 0
lambda[18] 0
lambda[19] 0
lambda[20] 0
lambda[21] 0
lambda[22] 0
lambda[23] 0
lambda[24] 0
lambda[25] 0
lambda[26] 4.1503748789208239e-01
phi[0] 2.8768207245178090e-01
